n_res = 4;
rc = [ 21, 24, 34, 27 ];
n_tasks = 30;
d = [ 9, 4, 1, 8, 4, 4, 3, 9, 2, 4, 7, 2, 5, 8, 4, 8, 7, 7, 1, 4, 4, 4, 8, 10, 9, 9, 3, 10, 3, 5 ];
rr = [| 21, 21, 21, 21, 21, 21, 21, 21, 21, 21, 21, 21, 21, 21, 21, 21, 21, 21, 21, 21, 21, 21, 21, 21, 21, 21, 21, 21, 21, 21
      | 24, 24, 24, 24, 24, 24, 24, 24, 24, 24, 24, 24, 24, 24, 24, 24, 24, 24, 24, 24, 24, 24, 24, 24, 24, 24, 24, 24, 24, 24
      | 34, 34, 34, 34, 34, 34, 34, 34, 34, 34, 34, 34, 34, 34, 34, 34, 34, 34, 34, 34, 34, 34, 34, 34, 34, 34, 34, 34, 34, 34
      | 27, 27, 27, 27, 27, 27, 27, 27, 27, 27, 27, 27, 27, 27, 27, 27, 27, 27, 27, 27, 27, 27, 27, 27, 27, 27, 27, 27, 27, 27|];
suc = [ { 4, 5 },
       { 11, 15, 24 },
       { 9 },
       { 6, 7, 18 },
       { 11, 17 },
       { 8, 12, 27 },
       { 10 },
       { 13, 16, 19 },
       { 18, 22, 24 },
       { 14, 23 },
       { 16, 27 },
       { 14 },
       { 17 },
       { 20, 24 },
       { 16, 23 },
       { 20, 21, 26 },
       { 20, 23 },
       { 21, 26, 29 },
       { 21, 22, 25 },
       { 30 },
       { 30 },
       { 29 },
       { 25, 26 },
       { 25 },
       { 30 },
       { 28 },
       { 28, 29 },
       {  },
       {  },
       {  } ];
